MSW08
Position Depot: Random
Horizon for Depot: Small
Position of customers: Mixt
Distribution of the demand: Small
Width of time windows: Wide
Distribution of the service: Large

VEHICLE 
NUMBER 	 CAPACITY 
 6 	 	 123 
 
CUSTOMER
CUST NO. 	 XCOORD.  	 YCOORD. 	 DEMAND 	 READY TIME 	 DUE DATE 	 SERVICE TIME 
 0 	 	 121 	 	 415 	 	 0 	 	 0 	 	 1859 	 	 0 
  1 	 	 976 	 	 741 	 	 7 	 	 906 	 	 1277 	 	 169 
  2 	 	 536 	 	 175 	 	 10 	 	 1101 	 	 1455 	 	 182 
  3 	 	 349 	 	 64 	 	 6 	 	 -21 	 	 460 	 	 138 
  4 	 	 591 	 	 515 	 	 5 	 	 1446 	 	 1799 	 	 137 
  5 	 	 109 	 	 661 	 	 5 	 	 1428 	 	 1859 	 	 152 
  6 	 	 834 	 	 545 	 	 9 	 	 799 	 	 1219 	 	 152 
  7 	 	 286 	 	 602 	 	 5 	 	 81 	 	 581 	 	 194 
  8 	 	 695 	 	 345 	 	 5 	 	 1390 	 	 1674 	 	 165 
  9 	 	 253 	 	 688 	 	 5 	 	 722 	 	 969 	 	 181 
  10 	 	 859 	 	 612 	 	 8 	 	 605 	 	 840 	 	 147 
  11 	 	 635 	 	 257 	 	 9 	 	 339 	 	 591 	 	 181 
  12 	 	 54 	 	 758 	 	 7 	 	 780 	 	 1246 	 	 177 
  13 	 	 413 	 	 20 	 	 9 	 	 792 	 	 1167 	 	 130 
  14 	 	 600 	 	 534 	 	 10 	 	 1219 	 	 1519 	 	 171 
  15 	 	 756 	 	 294 	 	 6 	 	 1583 	 	 1817 	 	 141 
  16 	 	 594 	 	 234 	 	 8 	 	 878 	 	 1110 	 	 105 
  17 	 	 494 	 	 439 	 	 6 	 	 1167 	 	 1505 	 	 198 
  18 	 	 276 	 	 680 	 	 5 	 	 322 	 	 789 	 	 104 
  19 	 	 406 	 	 348 	 	 10 	 	 178 	 	 430 	 	 152 
  20 	 	 227 	 	 603 	 	 7 	 	 1006 	 	 1428 	 	 156 
  21 	 	 370 	 	 42 	 	 7 	 	 1150 	 	 1503 	 	 179 
  22 	 	 124 	 	 630 	 	 10 	 	 581 	 	 951 	 	 156 
  23 	 	 322 	 	 680 	 	 5 	 	 1292 	 	 1561 	 	 189 
  24 	 	 661 	 	 519 	 	 8 	 	 317 	 	 652 	 	 191 
  25 	 	 606 	 	 454 	 	 10 	 	 226 	 	 535 	 	 198 
  26 	 	 637 	 	 454 	 	 7 	 	 540 	 	 1039 	 	 166 
  27 	 	 717 	 	 608 	 	 9 	 	 610 	 	 813 	 	 140 
  28 	 	 335 	 	 9 	 	 9 	 	 360 	 	 848 	 	 131 
  29 	 	 382 	 	 597 	 	 8 	 	 1395 	 	 1704 	 	 133 
  30 	 	 682 	 	 115 	 	 9 	 	 694 	 	 969 	 	 127 
  31 	 	 719 	 	 348 	 	 5 	 	 805 	 	 1264 	 	 140 
  32 	 	 838 	 	 637 	 	 9 	 	 1014 	 	 1440 	 	 118 
  33 	 	 811 	 	 438 	 	 5 	 	 1353 	 	 1788 	 	 159 
  34 	 	 858 	 	 553 	 	 5 	 	 1462 	 	 1854 	 	 125 
  35 	 	 7 	 	 631 	 	 10 	 	 1403 	 	 1859 	 	 111 
  36 	 	 345 	 	 141 	 	 9 	 	 1110 	 	 1424 	 	 154 
  37 	 	 680 	 	 332 	 	 8 	 	 593 	 	 917 	 	 117 
  38 	 	 522 	 	 148 	 	 9 	 	 1385 	 	 1859 	 	 198 
  39 	 	 675 	 	 362 	 	 10 	 	 1046 	 	 1262 	 	 181 
  40 	 	 412 	 	 39 	 	 8 	 	 1322 	 	 1563 	 	 180 
  41 	 	 345 	 	 52 	 	 7 	 	 1047 	 	 1453 	 	 121 
  42 	 	 694 	 	 327 	 	 9 	 	 293 	 	 775 	 	 193 
  43 	 	 718 	 	 459 	 	 5 	 	 342 	 	 658 	 	 141 
  44 	 	 724 	 	 583 	 	 8 	 	 334 	 	 688 	 	 170 
  45 	 	 568 	 	 88 	 	 8 	 	 367 	 	 609 	 	 118 
  46 	 	 610 	 	 471 	 	 10 	 	 1538 	 	 1849 	 	 181 
  47 	 	 950 	 	 693 	 	 9 	 	 600 	 	 961 	 	 131 
  48 	 	 487 	 	 599 	 	 6 	 	 357 	 	 605 	 	 187 
  49 	 	 954 	 	 712 	 	 7 	 	 1148 	 	 1479 	 	 109 
  50 	 	 264 	 	 646 	 	 10 	 	 344 	 	 756 	 	 190 
  51 	 	 247 	 	 439 	 	 8 	 	 1255 	 	 1545 	 	 189 
  52 	 	 235 	 	 743 	 	 10 	 	 1203 	 	 1423 	 	 144 
  53 	 	 758 	 	 404 	 	 10 	 	 794 	 	 1046 	 	 181 
  54 	 	 132 	 	 235 	 	 9 	 	 1488 	 	 1805 	 	 200 
  55 	 	 291 	 	 578 	 	 6 	 	 1399 	 	 1859 	 	 150 
  56 	 	 181 	 	 562 	 	 5 	 	 1293 	 	 1698 	 	 166 
  57 	 	 567 	 	 272 	 	 9 	 	 1313 	 	 1727 	 	 113 
  58 	 	 287 	 	 249 	 	 10 	 	 1641 	 	 1859 	 	 168 
  59 	 	 102 	 	 110 	 	 9 	 	 1502 	 	 1747 	 	 177 
  60 	 	 560 	 	 519 	 	 9 	 	 1126 	 	 1592 	 	 113 
  61 	 	 720 	 	 363 	 	 7 	 	 1283 	 	 1483 	 	 192 
  62 	 	 154 	 	 778 	 	 5 	 	 -18 	 	 400 	 	 170 
  63 	 	 867 	 	 541 	 	 10 	 	 926 	 	 1291 	 	 103 
  64 	 	 197 	 	 808 	 	 6 	 	 1405 	 	 1732 	 	 156 
  65 	 	 397 	 	 497 	 	 8 	 	 1372 	 	 1637 	 	 181 
  66 	 	 967 	 	 572 	 	 10 	 	 503 	 	 946 	 	 127 
  67 	 	 172 	 	 614 	 	 6 	 	 552 	 	 917 	 	 181 
  68 	 	 184 	 	 264 	 	 9 	 	 1290 	 	 1569 	 	 123 
  69 	 	 812 	 	 325 	 	 9 	 	 1556 	 	 1788 	 	 163 
  70 	 	 785 	 	 602 	 	 6 	 	 519 	 	 758 	 	 116 
  71 	 	 8 	 	 332 	 	 5 	 	 869 	 	 1351 	 	 179 
  72 	 	 873 	 	 518 	 	 10 	 	 1162 	 	 1424 	 	 173 
  73 	 	 716 	 	 485 	 	 5 	 	 1562 	 	 1859 	 	 161 
  74 	 	 419 	 	 62 	 	 9 	 	 980 	 	 1235 	 	 104 
  75 	 	 257 	 	 173 	 	 9 	 	 437 	 	 676 	 	 194 
  76 	 	 53 	 	 125 	 	 7 	 	 518 	 	 922 	 	 192 
  77 	 	 592 	 	 225 	 	 9 	 	 938 	 	 1327 	 	 190 
  78 	 	 158 	 	 125 	 	 9 	 	 1049 	 	 1264 	 	 171 
  79 	 	 625 	 	 400 	 	 5 	 	 945 	 	 1383 	 	 176 
  80 	 	 105 	 	 157 	 	 5 	 	 180 	 	 516 	 	 137 
  81 	 	 647 	 	 764 	 	 7 	 	 341 	 	 805 	 	 194 
  82 	 	 254 	 	 44 	 	 7 	 	 38 	 	 433 	 	 150 
  83 	 	 801 	 	 806 	 	 8 	 	 515 	 	 883 	 	 154 
  84 	 	 419 	 	 125 	 	 9 	 	 1 	 	 457 	 	 100 
  85 	 	 945 	 	 599 	 	 5 	 	 1151 	 	 1546 	 	 183 
  86 	 	 51 	 	 672 	 	 6 	 	 1319 	 	 1646 	 	 190 
  87 	 	 303 	 	 293 	 	 5 	 	 415 	 	 868 	 	 167 
  88 	 	 396 	 	 284 	 	 8 	 	 817 	 	 1261 	 	 123 
  89 	 	 891 	 	 817 	 	 7 	 	 664 	 	 955 	 	 198 
  90 	 	 634 	 	 971 	 	 5 	 	 451 	 	 832 	 	 118 
  91 	 	 810 	 	 576 	 	 7 	 	 1098 	 	 1587 	 	 105 
  92 	 	 680 	 	 486 	 	 8 	 	 729 	 	 1219 	 	 145 
  93 	 	 209 	 	 481 	 	 9 	 	 431 	 	 890 	 	 189 
  94 	 	 506 	 	 367 	 	 8 	 	 596 	 	 1062 	 	 139 
  95 	 	 300 	 	 508 	 	 10 	 	 1410 	 	 1770 	 	 161 
  96 	 	 333 	 	 498 	 	 10 	 	 -131 	 	 299 	 	 138 
  97 	 	 520 	 	 838 	 	 10 	 	 1482 	 	 1859 	 	 127 
  98 	 	 67 	 	 533 	 	 8 	 	 985 	 	 1410 	 	 109 
  99 	 	 453 	 	 86 	 	 9 	 	 122 	 	 514 	 	 141 
  100 	 	 655 	 	 382 	 	 5 	 	 1490 	 	 1721 	 	 165 
 